%chk=gdv.chk
%mem=32GB
%nproc=12
#P ucis(mo,nstates=15)/cc-pVTZ extrabasis gfprint nosymm
int(acc2e=16) SCF(NoVarAcc,NoIncFock,MaxCYC=64) IOp(3/196=1) IOp(3/33=1)
Pop=Full IOp(3/117=1,3/194=10003501,3/195=5,6/18=1,8/10=91,8/37=7,8/38=-10,9/127=2)
OUTPUT=(faf,i4lab,Files=(514,619,751,870,1,2,3,4,5,6,7,8,9,10,11,12,13,14))

Title Card Required 

0 1
Cl   0.0000   0.0000   -0.65735
H    0.0000   0.0000    0.65735

Cl H 0
 s 1 1.00
 .0256000000D-00 1.0000000000D+00
 s 1 1.00
 .0128000000D-00 1.0000000000D+00
 s 1 1.00
 .0064000000D-00 1.0000000000D+00
 p 1 1.00
 .0256000000D-00 1.0000000000D+00
 p 1 1.00
 .0128000000D-00 1.0000000000D+00
 d 1 1.00
 .0512000000D-00 1.0000000000D+00
 d 1 1.00
 .0256000000D-00 1.0000000000D+00
 d 1 1.00
 .0128000000D-00 1.0000000000D+00
 f 1 1.00
 .0256000000D-00 1.0000000000D+00
****

MatrixElements.faf

14.24
1.00

